GLPSOL--GLPK LP/MIP Solver 5.0
Parameter(s) specified in the command line:
 --lp ../modeles/4_34.lp --log 4_34.log
Reading problem data from '../modeles/4_34.lp'...
153 rows, 280 columns, 964 non-zeros
136 integer variables, all of which are binary
443 lines were read
GLPK Integer Optimizer 5.0
153 rows, 280 columns, 964 non-zeros
136 integer variables, all of which are binary
Preprocessing...
136 constraint coefficient(s) were reduced
153 rows, 276 columns, 960 non-zeros
136 integer variables, all of which are binary
Scaling...
 A: min|aij| =  1.384e-02  max|aij| =  4.000e+00  ratio =  2.890e+02
GM: min|aij| =  2.425e-01  max|aij| =  4.123e+00  ratio =  1.700e+01
EQ: min|aij| =  5.882e-02  max|aij| =  1.000e+00  ratio =  1.700e+01
2N: min|aij| =  5.536e-02  max|aij| =  1.710e+00  ratio =  3.089e+01
Constructing initial basis...
Size of triangular part is 153
Solving LP relaxation...
GLPK Simplex Optimizer 5.0
153 rows, 276 columns, 960 non-zeros
      0: obj =   8.000000000e+00 inf =   1.950e+01 (9)
     27: obj =  -2.329842932e-01 inf =   0.000e+00 (0)
*    78: obj =  -1.990196078e+00 inf =   1.222e-16 (0)
OPTIMAL LP SOLUTION FOUND
Integer optimization begins...
Long-step dual simplex will be used
+    78: mip =     not found yet >=              -inf        (1; 0)
+   111: >>>>>  -1.990196078e+00 >=  -1.990196078e+00   0.0% (33; 0)
+   111: mip =  -1.990196078e+00 >=     tree is empty   0.0% (0; 65)
INTEGER OPTIMAL SOLUTION FOUND
Time used:   0.0 secs
Memory used: 0.4 Mb (469874 bytes)
